********************************************************************************
Field Output Report, written Sat Oct 03 22:30:18 2015

Source 1
---------

   Step: Step-1
   Frame: Increment      1: Step Time =    1.000

Loc 1 : Element nodal  values at shell < MATERIAL-1 > < 5 section points > from source 1 : SNEG, (fraction = -1.0)
Loc 2 : Element nodal  values at shell < MATERIAL-1 > < 5 section points > from source 1 : SPOS, (fraction = 1.0)

Output sorted by column "Element Label".

Field Output reported at element nodes for region: PART-1-1.Region_2
   Computation algorithm: EXTRAPOLATE_COMPUTE_AVERAGE
   Not averaged

         Element            Node           S.S11           S.S11           S.S22           S.S22           S.S33           S.S33           S.S12           S.S12
           Label           Label          @Loc 1          @Loc 2          @Loc 1          @Loc 2          @Loc 1          @Loc 2          @Loc 1          @Loc 2
-----------------------------------------------------------------------------------------------------------------------------------------------------------------
             233               7    -649.827E-03     649.827E-03    -752.263E-03     752.263E-03              0.              0.     52.4593E-03    -52.4593E-03
             233              46     291.284E-03    -291.284E-03    -628.416E-03     628.416E-03              0.              0.     80.7225E-03    -80.7225E-03
             233             264     178.842E-03    -178.842E-03     248.050E-03    -248.050E-03              0.              0.    -29.1296E-03     29.1296E-03
             233             296    -64.5736E-03     64.5736E-03     212.992E-03    -212.992E-03              0.              0.    -17.1538E-03     17.1538E-03
             233             693    -179.272E-03     179.272E-03    -690.340E-03     690.340E-03              0.              0.     66.5909E-03    -66.5909E-03
             233            1153     57.1344E-03    -57.1344E-03     230.521E-03    -230.521E-03              0.              0.    -23.1417E-03     23.1417E-03
             233            1155    -235.492E-03     235.492E-03    -252.107E-03     252.107E-03              0.              0.     11.6648E-03    -11.6648E-03
             233            1156     113.355E-03    -113.355E-03    -207.712E-03     207.712E-03              0.              0.     31.7843E-03    -31.7843E-03
             238              45    -28.9342E-03     28.9342E-03    -563.428E-03     563.428E-03              0.              0.     30.8096E-03    -30.8096E-03
             238              46    -461.912E-03     461.912E-03    -841.350E-03     841.350E-03              0.              0.    -45.1069E-03     45.1069E-03
             238             296     141.225E-03    -141.225E-03     287.756E-03    -287.756E-03              0.              0.    -4.26702E-03     4.26702E-03
             238             300     12.3303E-03    -12.3303E-03     189.344E-03    -189.344E-03              0.              0.     62.7483E-06    -62.7483E-06
             238             696    -245.423E-03     245.423E-03    -702.389E-03     702.389E-03              0.              0.    -7.14865E-03     7.14865E-03
             238            1156    -160.344E-03     160.344E-03    -276.797E-03     276.797E-03              0.              0.    -24.6870E-03     24.6870E-03
             238            1164     76.7775E-03    -76.7775E-03     238.550E-03    -238.550E-03              0.              0.    -2.10213E-03     2.10213E-03
             238            1166    -8.30193E-03     8.30193E-03    -187.042E-03     187.042E-03              0.              0.     15.4362E-03    -15.4362E-03
             243              44    -260.951E-03     260.951E-03    -602.951E-03     602.951E-03              0.              0.     3.28550E-03    -3.28550E-03
             243              45    -146.000E-03     146.000E-03    -610.308E-03     610.308E-03              0.              0.    -48.2515E-03     48.2515E-03
             243             300     49.6116E-03    -49.6116E-03     188.768E-03    -188.768E-03              0.              0.     10.9720E-03    -10.9720E-03
             243             304     78.6175E-03    -78.6175E-03     204.260E-03    -204.260E-03              0.              0.     1.94664E-03    -1.94664E-03
             243             699    -203.475E-03     203.475E-03    -606.629E-03     606.629E-03              0.              0.    -22.4830E-03     22.4830E-03
             243            1166    -48.1940E-03     48.1940E-03    -210.770E-03     210.770E-03              0.              0.    -18.6398E-03     18.6398E-03
             243            1174     64.1145E-03    -64.1145E-03     196.514E-03    -196.514E-03              0.              0.     6.45933E-03    -6.45933E-03
             243            1176    -91.1668E-03     91.1668E-03    -199.345E-03     199.345E-03              0.              0.     2.61607E-03    -2.61607E-03
             248              43    -271.173E-03     271.173E-03    -589.902E-03     589.902E-03              0.              0.    -13.4094E-03     13.4094E-03
             248              44    -74.8813E-03     74.8813E-03    -559.275E-03     559.275E-03              0.              0.    -22.2208E-03     22.2208E-03
             248             304     30.8629E-03    -30.8629E-03     177.787E-03    -177.787E-03              0.              0.     10.7951E-03    -10.7951E-03
             248             308     82.5671E-03    -82.5671E-03     194.737E-03    -194.737E-03              0.              0.     4.90640E-03    -4.90640E-03
             248             702    -173.027E-03     173.027E-03    -574.589E-03     574.589E-03              0.              0.    -17.8151E-03     17.8151E-03
             248            1176    -22.0092E-03     22.0092E-03    -190.744E-03     190.744E-03              0.              0.    -5.71284E-03     5.71284E-03
             248            1184     56.7150E-03    -56.7150E-03     186.262E-03    -186.262E-03              0.              0.     7.85076E-03    -7.85076E-03
             248            1186    -94.3032E-03     94.3032E-03    -197.583E-03     197.583E-03              0.              0.    -4.25152E-03     4.25152E-03
             253              42    -234.928E-03     234.928E-03    -573.554E-03     573.554E-03              0.              0.    -13.6060E-03     13.6060E-03
             253              43    -92.1568E-03     92.1568E-03    -540.940E-03     540.940E-03              0.              0.    -5.50248E-03     5.50248E-03
             253             308     35.0691E-03    -35.0691E-03     175.744E-03    -175.744E-03              0.              0.     4.69911E-03    -4.69911E-03
             253             312     73.1762E-03    -73.1762E-03     187.150E-03    -187.150E-03              0.              0.     4.27851E-03    -4.27851E-03
             253             705    -163.542E-03     163.542E-03    -557.247E-03     557.247E-03              0.              0.    -9.55423E-03     9.55423E-03
             253            1186    -28.5438E-03     28.5438E-03    -182.598E-03     182.598E-03              0.              0.    -401.685E-06     401.685E-06
             253            1194     54.1227E-03    -54.1227E-03     181.447E-03    -181.447E-03              0.              0.     4.48881E-03    -4.48881E-03
             253            1196    -80.8760E-03     80.8760E-03    -193.202E-03     193.202E-03              0.              0.    -4.66373E-03     4.66373E-03
             258              41    -184.452E-03     184.452E-03    -557.257E-03     557.257E-03              0.              0.    -9.51902E-03     9.51902E-03
             258              42    -135.844E-03     135.844E-03    -545.129E-03     545.129E-03              0.              0.     3.65606E-03    -3.65606E-03
             258             312     46.6026E-03    -46.6026E-03     177.878E-03    -177.878E-03              0.              0.     729.961E-06    -729.961E-06
             258             316     59.6516E-03    -59.6516E-03     181.780E-03    -181.780E-03              0.              0.     2.21651E-03    -2.21651E-03
             258             708    -160.148E-03     160.148E-03    -551.193E-03     551.193E-03              0.              0.    -2.93148E-03     2.93148E-03
             258            1196    -44.6208E-03     44.6208E-03    -183.626E-03     183.626E-03              0.              0.     2.19301E-03    -2.19301E-03
             258            1204     53.1271E-03    -53.1271E-03     179.829E-03    -179.829E-03              0.              0.     1.47324E-03    -1.47324E-03
             258            1206    -62.4001E-03     62.4001E-03    -187.738E-03     187.738E-03              0.              0.    -3.65126E-03     3.65126E-03
             263              40    -135.840E-03     135.840E-03    -545.131E-03     545.131E-03              0.              0.    -3.65341E-03     3.65341E-03
             263              41    -184.458E-03     184.458E-03    -557.258E-03     557.258E-03              0.              0.     9.51984E-03    -9.51984E-03
             263             316     59.6531E-03    -59.6531E-03     181.781E-03    -181.781E-03              0.              0.    -2.21693E-03     2.21693E-03
             263             320     46.6015E-03    -46.6015E-03     177.878E-03    -177.878E-03              0.              0.    -730.894E-06     730.894E-06
             263             711    -160.149E-03     160.149E-03    -551.194E-03     551.194E-03              0.              0.     2.93322E-03    -2.93322E-03
             263            1206    -62.4024E-03     62.4024E-03    -187.738E-03     187.738E-03              0.              0.     3.65146E-03    -3.65146E-03
             263            1214     53.1273E-03    -53.1273E-03     179.830E-03    -179.830E-03              0.              0.    -1.47391E-03     1.47391E-03
             263            1216    -44.6192E-03     44.6192E-03    -183.627E-03     183.627E-03              0.              0.    -2.19215E-03     2.19215E-03
             268              39    -92.1651E-03     92.1651E-03    -540.951E-03     540.951E-03              0.              0.     5.50722E-03    -5.50722E-03
             268              40    -234.928E-03     234.928E-03    -573.556E-03     573.556E-03              0.              0.     13.6044E-03    -13.6044E-03
             268             320     73.1763E-03    -73.1763E-03     187.152E-03    -187.152E-03              0.              0.    -4.27833E-03     4.27833E-03
             268             324     35.0712E-03    -35.0712E-03     175.746E-03    -175.746E-03              0.              0.    -4.69984E-03     4.69984E-03
             268             714    -163.547E-03     163.547E-03    -557.253E-03     557.253E-03              0.              0.     9.55582E-03    -9.55582E-03
             268            1216    -80.8759E-03     80.8759E-03    -193.202E-03     193.202E-03              0.              0.     4.66305E-03    -4.66305E-03
             268            1224     54.1238E-03    -54.1238E-03     181.449E-03    -181.449E-03              0.              0.    -4.48909E-03     4.48909E-03
             268            1226    -28.5469E-03     28.5469E-03    -182.603E-03     182.603E-03              0.              0.     403.690E-06    -403.690E-06
             273              38    -74.9167E-03     74.9167E-03    -559.303E-03     559.303E-03              0.              0.     22.2285E-03    -22.2285E-03
             273              39    -271.151E-03     271.151E-03    -589.902E-03     589.902E-03              0.              0.     13.4024E-03    -13.4024E-03
             273             324     82.5602E-03    -82.5602E-03     194.737E-03    -194.737E-03              0.              0.    -4.90418E-03     4.90418E-03
             273             328     30.8741E-03    -30.8741E-03     177.800E-03    -177.800E-03              0.              0.    -10.7979E-03     10.7979E-03
             273             717    -173.034E-03     173.034E-03    -574.602E-03     574.602E-03              0.              0.     17.8155E-03    -17.8155E-03
             273            1226    -94.2955E-03     94.2955E-03    -197.583E-03     197.583E-03              0.              0.     4.24913E-03    -4.24913E-03
             273            1234     56.7171E-03    -56.7171E-03     186.268E-03    -186.268E-03              0.              0.    -7.85105E-03     7.85105E-03
             273            1236    -22.0213E-03     22.0213E-03    -190.751E-03     190.751E-03              0.              0.     5.71528E-03    -5.71528E-03
             278              37    -146.069E-03     146.069E-03    -610.329E-03     610.329E-03              0.              0.     48.2394E-03    -48.2394E-03
             278              38    -260.900E-03     260.900E-03    -602.951E-03     602.951E-03              0.              0.    -3.29483E-03     3.29483E-03
             278             328     78.6042E-03    -78.6042E-03     204.266E-03    -204.266E-03              0.              0.    -1.94669E-03     1.94669E-03
             278             332     49.6236E-03    -49.6236E-03     188.758E-03    -188.758E-03              0.              0.    -10.9543E-03     10.9543E-03
             278             720    -203.484E-03     203.484E-03    -606.640E-03     606.640E-03              0.              0.     22.4723E-03    -22.4723E-03
             278            1236    -91.1476E-03     91.1476E-03    -199.342E-03     199.342E-03              0.              0.    -2.62076E-03     2.62076E-03
             278            1244     64.1139E-03    -64.1139E-03     196.512E-03    -196.512E-03              0.              0.    -6.45048E-03     6.45048E-03
             278            1246    -48.2226E-03     48.2226E-03    -210.785E-03     210.785E-03              0.              0.     18.6425E-03    -18.6425E-03
             283              36    -462.004E-03     462.004E-03    -841.414E-03     841.414E-03              0.              0.     45.1607E-03    -45.1607E-03
             283              37    -28.8282E-03     28.8282E-03    -563.405E-03     563.405E-03              0.              0.    -30.8405E-03     30.8405E-03
             283             332     12.3051E-03    -12.3051E-03     189.314E-03    -189.314E-03              0.              0.    -43.6248E-06     43.6248E-06
             283             336     141.291E-03    -141.291E-03     287.859E-03    -287.859E-03              0.              0.     4.20185E-03    -4.20185E-03
             283             723    -245.416E-03     245.416E-03    -702.410E-03     702.410E-03              0.              0.     7.16011E-03    -7.16011E-03
             283            1246    -8.26159E-03     8.26159E-03    -187.045E-03     187.045E-03              0.              0.    -15.4421E-03     15.4421E-03
             283            1254     76.7983E-03    -76.7983E-03     238.586E-03    -238.586E-03              0.              0.     2.07911E-03    -2.07911E-03
             283            1256    -160.356E-03     160.356E-03    -276.778E-03     276.778E-03              0.              0.     24.6813E-03    -24.6813E-03
             288               3    -650.020E-03     650.020E-03    -751.980E-03     751.980E-03              0.              0.    -52.8850E-03     52.8850E-03
             288              36     291.318E-03    -291.318E-03    -628.452E-03     628.452E-03              0.              0.    -80.6383E-03     80.6383E-03
             288             265     178.862E-03    -178.862E-03     247.777E-03    -247.777E-03              0.              0.     29.5750E-03    -29.5750E-03
             288             336    -64.6935E-03     64.6935E-03     213.029E-03    -213.029E-03              0.              0.     17.0687E-03    -17.0687E-03
             288             725    -179.351E-03     179.351E-03    -690.216E-03     690.216E-03              0.              0.    -66.7616E-03     66.7616E-03
             288            1256     113.312E-03    -113.312E-03    -207.712E-03     207.712E-03              0.              0.    -31.7848E-03     31.7848E-03
             288            1264     57.0843E-03    -57.0843E-03     230.403E-03    -230.403E-03              0.              0.     23.3219E-03    -23.3219E-03
             288            1266    -235.579E-03     235.579E-03    -252.102E-03     252.102E-03              0.              0.    -11.6550E-03     11.6550E-03
             289              10        -83.3491         80.8013        -207.652         215.632              0.              0.        -3.52649         5.97915
             289              47        -78.2080         78.0158        -220.506         225.567              0.              0.        -7.62087         6.94461
             289             280        -59.2135         57.8950        -156.680         160.431              0.              0.         3.89930        -1.57909
             289             337        -62.9523         61.4827        -163.764         168.056              0.              0.         1.86228        -1.25536
             289             727        -80.7785         79.4085        -214.079         220.600              0.              0.        -5.57368         6.46188
             289            1267        -71.2813         69.3481        -182.166         188.032              0.              0.     186.405E-03         2.20003
             289            1268        -61.0829         59.6888        -160.222         164.243              0.              0.         2.88079        -1.41722
             289            1269        -70.5802         69.7492        -192.135         196.811              0.              0.        -2.87929         2.84463
             294              47        -80.9608         79.9107        -221.920         226.247              0.              0.        -6.79871         6.65410
             294              48        -74.7460         74.0343        -225.494         228.277              0.              0.        -4.18317         4.41923
             294             337        -62.1262         61.0460        -164.105         168.036              0.              0.         1.06043    -500.787E-03
             294             341        -60.7357         59.9674        -171.174         174.142              0.              0.    -801.930E-03     943.425E-03
             294             730        -77.8534         76.9725        -223.707         227.262              0.              0.        -5.49094         5.53666
             294            1269        -71.5435         70.4784        -193.012         197.142              0.              0.        -2.86914         3.07666
             294            1282        -61.4310         60.5067        -167.639         171.089              0.              0.     129.249E-03     221.319E-03
             294            1283        -67.7408         67.0008        -198.334         201.209              0.              0.        -2.49255         2.68133
             299              48        -75.3377         74.4559        -225.583         228.397              0.              0.        -3.79263         4.05258
             299              49        -71.9437         70.8345        -226.125         228.802              0.              0.        -1.96154         2.34350
             299             341        -60.0229         59.3137        -170.872         173.940              0.              0.    -833.531E-03         1.01893
             299             345        -57.6281         56.9595        -173.838         176.485              0.              0.    -644.435E-03     886.663E-03
             299             733        -73.6407         72.6452        -225.854         228.600              0.              0.        -2.87708         3.19804
             299            1283        -67.6803         66.8848        -198.227         201.168              0.              0.        -2.31308         2.53575
             299            1292        -58.8255         58.1366        -172.355         175.212              0.              0.    -738.983E-03     952.794E-03
             299            1293        -64.7859         63.8970        -199.981         202.643              0.              0.        -1.30299         1.61508
             304              49        -72.3233         71.1952        -226.125         228.845              0.              0.        -1.93308         2.29889
             304              50        -70.4685         69.3625        -226.034         228.847              0.              0.    -866.265E-03         1.10004
             304             345        -57.5073         56.8148        -173.687         176.377              0.              0.    -597.284E-03     843.854E-03
             304             349        -55.8400         55.0953        -174.835         177.528              0.              0.    -303.784E-03     534.979E-03
             304             736        -71.3959         70.2788        -226.079         228.846              0.              0.        -1.39967         1.69946
             304            1293        -64.9153         64.0050        -199.906         202.611              0.              0.        -1.26518         1.57137
             304            1302        -56.6737         55.9551        -174.261         176.952              0.              0.    -450.534E-03     689.416E-03
             304            1303        -63.1542         62.2289        -200.435         203.188              0.              0.    -585.025E-03     817.510E-03
             309              50        -70.6700         69.5469        -226.049         228.865              0.              0.    -864.126E-03         1.09545
             309              51        -69.7452         68.7107        -225.936         228.823              0.              0.    -327.847E-03     427.298E-03
             309             349        -55.8065         55.0509        -174.780         177.478              0.              0.    -298.465E-03     527.411E-03
             309             353        -54.8787         54.0964        -175.166         177.924              0.              0.    -93.0931E-03     222.051E-03
             309             739        -70.2076         69.1288        -225.993         228.844              0.              0.    -595.986E-03     761.375E-03
             309            1303        -63.2383         62.2989        -200.414         203.171              0.              0.    -581.296E-03     811.431E-03
             309            1312        -55.3426         54.5737        -174.973         177.701              0.              0.    -195.779E-03     374.731E-03
             309            1313        -62.3120         61.4035        -200.551         203.373              0.              0.    -210.470E-03     324.675E-03
             314              51        -69.8278         68.7851        -225.946         228.830              0.              0.    -329.595E-03     432.038E-03
             314              52        -69.5466         68.5454        -225.906         228.812              0.              0.     1.45552E-03    -3.70855E-03
             314             353        -54.8758         54.0927        -175.151         177.908              0.              0.    -101.627E-03     229.603E-03
             314             357        -54.5822         53.7936        -175.240         178.022              0.              0.     5.78111E-03    -5.98367E-03
             314             742        -69.6872         68.6653        -225.926         228.821              0.              0.    -164.070E-03     214.165E-03
             314            1313        -62.3518         61.4389        -200.549         203.369              0.              0.    -215.611E-03     330.820E-03
             314            1322        -54.7290         53.9432        -175.195         177.965              0.              0.    -47.9230E-03     111.810E-03
             314            1323        -62.0644         61.1695        -200.573         203.417              0.              0.     3.61831E-03    -4.84611E-03
             319              52        -69.5466         68.5454        -225.906         228.812              0.              0.    -793.062E-06     2.43326E-03
             319              53        -69.8283         68.7857        -225.947         228.831              0.              0.     330.106E-03    -433.109E-03
             319             357        -54.5821         53.7935        -175.240         178.022              0.              0.    -4.83612E-03     4.35709E-03
             319             361        -54.8763         54.0932        -175.151         177.909              0.              0.     102.879E-03    -231.469E-03
             319             745        -69.6875         68.6656        -225.927         228.821              0.              0.     164.657E-03    -215.338E-03
             319            1323        -62.0643         61.1695        -200.573         203.417              0.              0.    -2.81459E-03     3.39518E-03
             319            1332        -54.7292         53.9433        -175.196         177.965              0.              0.     49.0213E-03    -113.556E-03
             319            1333        -62.3523         61.4394        -200.549         203.370              0.              0.     216.492E-03    -332.289E-03
             324              53        -69.7455         68.7111        -225.937         228.823              0.              0.     328.243E-03    -428.231E-03
             324              54        -70.6712         69.5481        -226.052         228.867              0.              0.     865.638E-03        -1.09737
             324             361        -54.8795         54.0970        -175.167         177.925              0.              0.     94.1490E-03    -223.715E-03
             324             365        -55.8086         55.0528        -174.781         177.480              0.              0.     300.002E-03    -529.232E-03
             324             748        -70.2083         69.1296        -225.994         228.845              0.              0.     596.940E-03    -762.802E-03
             324            1333        -62.3125         61.4040        -200.552         203.374              0.              0.     211.196E-03    -325.973E-03
             324            1342        -55.3440         54.5749        -174.974         177.702              0.              0.     197.075E-03    -376.474E-03
             324            1343        -63.2399         62.3005        -200.416         203.173              0.              0.     582.820E-03    -813.303E-03
             329              54        -70.4711         69.3648        -226.037         228.849              0.              0.     867.637E-03        -1.10194
             329              55        -72.3263         71.1987        -226.125         228.846              0.              0.         1.93369        -2.29898
             329             365        -55.8405         55.0956        -174.836         177.529              0.              0.     303.402E-03    -534.938E-03
             329             369        -57.5103         56.8172        -173.691         176.380              0.              0.     601.111E-03    -848.174E-03
             329             751        -71.3987         70.2817        -226.081         228.848              0.              0.         1.40066        -1.70046
             329            1343        -63.1558         62.2302        -200.436         203.189              0.              0.     585.520E-03    -818.440E-03
             329            1352        -56.6754         55.9564        -174.264         176.954              0.              0.     452.257E-03    -691.556E-03
             329            1353        -64.9183         64.0079        -199.908         202.613              0.              0.         1.26740        -1.57358
             334              55        -71.9482         70.8404        -226.123         228.801              0.              0.         1.96035        -2.34157
             334              56        -75.3437         74.4599        -225.597         228.406              0.              0.         3.80297        -4.06327
             334             369        -57.6309         56.9618        -173.839         176.485              0.              0.     639.625E-03    -881.771E-03
             334             373        -60.0335         59.3232        -170.870         173.944              0.              0.     842.086E-03        -1.02599
             334             754        -73.6460         72.6501        -225.860         228.603              0.              0.         2.88166        -3.20242
             334            1353        -64.7896         63.9011        -199.981         202.643              0.              0.         1.29999        -1.61167
             334            1362        -58.8322         58.1425        -172.354         175.215              0.              0.     740.856E-03    -953.881E-03
             334            1363        -67.6886         66.8916        -198.233         201.175              0.              0.         2.32253        -2.54463
             339              56        -74.7596         74.0431        -225.504         228.281              0.              0.         4.16047        -4.39676
             339              57        -80.8961         79.8467        -221.839         226.205              0.              0.         6.80476        -6.65573
             339             373        -60.7133         59.9411        -171.156         174.130              0.              0.     750.891E-03    -894.230E-03
             339             377        -62.1861         61.1069        -164.217         168.121              0.              0.    -956.953E-03     384.855E-03
             339             757        -77.8279         76.9449        -223.672         227.243              0.              0.         5.48262        -5.52624
             339            1363        -67.7364         66.9921        -198.330         201.205              0.              0.         2.45568        -2.64550
             339            1372        -61.4497         60.5240        -167.686         171.125              0.              0.    -103.031E-03    -254.688E-03
             339            1373        -71.5411         70.4768        -193.028         197.163              0.              0.         2.92390        -3.13544
             344               6        -83.0620         80.4980        -207.554         215.341              0.              0.         3.90188        -6.35502
             344              57        -78.6122         78.4206        -220.506         225.600              0.              0.         7.46387        -6.78863
             344             252        -59.7950         58.4595        -157.065         160.919              0.              0.        -3.64355         1.32955
             344             377        -62.7519         61.2859        -163.738         167.997              0.              0.        -2.06876         1.47394
             344             760        -80.8371         79.4593        -214.030         220.470              0.              0.         5.68288        -6.57182
             344            1373        -70.6821         69.8532        -192.122         196.798              0.              0.         2.69755        -2.65734
             344            1382        -61.2735         59.8727        -160.402         164.458              0.              0.        -2.85616         1.40174
             344            1383        -71.4285         69.4788        -182.310         188.130              0.              0.     129.167E-03        -2.51274
             349              14     40.3738E-03    -40.3738E-03        -1.26216         1.26216              0.              0.    -289.725E-03     289.725E-03
             349              15    -384.451E-03     384.451E-03    -368.531E-03     368.531E-03              0.              0.    -44.2937E-03     44.2937E-03
             349             441    -13.6107E-03     13.6107E-03     326.519E-03    -326.519E-03              0.              0.     23.5476E-03    -23.5476E-03
             349             443    -27.6819E-03     27.6819E-03    -404.961E-03     404.961E-03              0.              0.     21.2252E-03    -21.2252E-03
             349             672    -172.039E-03     172.039E-03    -815.344E-03     815.344E-03              0.              0.    -167.009E-03     167.009E-03
             349            1392     6.34594E-03    -6.34594E-03    -833.559E-03     833.559E-03              0.              0.    -134.250E-03     134.250E-03
             349            1393    -20.6463E-03     20.6463E-03    -39.2209E-03     39.2209E-03              0.              0.     22.3864E-03    -22.3864E-03
             349            1394    -199.031E-03     199.031E-03    -21.0060E-03     21.0060E-03              0.              0.    -10.3731E-03     10.3731E-03
             350              13        -2.10025         2.10025        -8.66146         8.66146              0.              0.        -1.23822         1.23822
             350              14    -439.404E-03     439.404E-03         1.64761        -1.64761              0.              0.     219.880E-03    -219.880E-03
             350             442        -2.40976         2.40976        -7.54308         7.54308              0.              0.     974.545E-03    -974.545E-03
             350             443     626.446E-03    -626.446E-03         2.65853        -2.65853              0.              0.    -171.861E-03     171.861E-03
             350             669        -1.26983         1.26983        -3.50693         3.50693              0.              0.    -509.171E-03     509.171E-03
             350            1392     93.5212E-03    -93.5212E-03         2.15307        -2.15307              0.              0.     24.0095E-03    -24.0095E-03
             350            1395        -2.25500         2.25500        -8.10227         8.10227              0.              0.    -131.838E-03     131.838E-03
             350            1396    -891.657E-03     891.657E-03        -2.44227         2.44227              0.              0.     401.342E-03    -401.342E-03
             351               2        -29.9005         29.9005        -100.440         100.440              0.              0.         4.02983        -4.02983
             351              13         6.07618        -6.07618         24.5403        -24.5403              0.              0.    -605.640E-03     605.640E-03
             351             408        -33.4673         33.4673        -115.605         115.605              0.              0.         2.79015        -2.79015
             351             442         10.3488        -10.3488         36.1575        -36.1575              0.              0.        -1.40147         1.40147
             351             666        -11.9122         11.9122        -37.9500         37.9500              0.              0.         1.71210        -1.71210
             351            1395         8.21250        -8.21250         30.3489        -30.3489              0.              0.        -1.00356         1.00356
             351            1397        -31.6839         31.6839        -108.023         108.023              0.              0.         3.40999        -3.40999
             351            1398        -11.5592         11.5592        -39.7237         39.7237              0.              0.     694.340E-03    -694.340E-03
             391               3    -12.2538E-03     12.2538E-03    -652.627E-03     652.627E-03              0.              0.    -56.4522E-03     56.4522E-03
             391              15    -244.429E-03     244.429E-03    -487.287E-03     487.287E-03              0.              0.    -152.101E-03     152.101E-03
             391             265     4.35492E-03    -4.35492E-03     170.504E-03    -170.504E-03              0.              0.     16.0857E-03    -16.0857E-03
             391             441     125.770E-03    -125.770E-03     140.099E-03    -140.099E-03              0.              0.     59.8956E-03    -59.8956E-03
             391             675    -128.342E-03     128.342E-03    -569.957E-03     569.957E-03              0.              0.    -104.277E-03     104.277E-03
             391            1266    -3.94945E-03     3.94945E-03    -241.062E-03     241.062E-03              0.              0.    -20.1832E-03     20.1832E-03
             391            1394    -59.3295E-03     59.3295E-03    -173.594E-03     173.594E-03              0.              0.    -46.1028E-03     46.1028E-03
             391            1482     65.0626E-03    -65.0626E-03     155.301E-03    -155.301E-03              0.              0.     37.9907E-03    -37.9907E-03
             407               2        -41.3434         37.4118        -134.078         124.188              0.              0.         10.1008        -10.9742
             407              24        -41.2585         39.9502        -164.195         155.580              0.              0.         21.2904        -19.4612
             407             408        -46.7294         44.1240        -156.097         149.999              0.              0.         6.00809        -5.89581
             407             472        -38.8259         37.5541        -158.026         150.786              0.              0.         15.6032        -14.7303
             407             680        -41.3009         38.6810        -149.136         139.884              0.              0.         15.6956        -15.2177
             407            1397        -44.0364         40.7679        -145.087         137.094              0.              0.         8.05445        -8.43501
             407            1515        -42.7776         40.8391        -157.061         150.393              0.              0.         10.8057        -10.3131
             407            1516        -40.0422         38.7521        -161.110         153.183              0.              0.         18.4468        -17.0958
             408              23        -41.8725         47.2317        -188.513         179.229              0.              0.         11.2711        -15.5495
             408              24        -38.0912         37.6043        -162.333         151.753              0.              0.         22.4809        -20.4975
             408             472        -38.4365         38.1307        -161.391         153.793              0.              0.         14.8250        -13.6079
             408             473        -34.1983         37.4416        -171.022         163.941              0.              0.         7.37503        -9.30457
             408             683        -39.9818         42.4180        -175.423         165.491              0.              0.         16.8760        -18.0235
             408            1514        -36.3174         37.7862        -166.206         158.867              0.              0.         11.1000        -11.4562
             408            1516        -38.2638         37.8675        -161.862         152.773              0.              0.         18.6529        -17.0527
             408            1517        -38.0354         42.3366        -179.767         171.585              0.              0.         9.32307        -12.4270
             409              22        -65.4608         67.0006        -199.406         201.887              0.              0.        -1.71680        -6.68266
             409              23        -44.0436         50.0242        -192.249         183.783              0.              0.         9.81497        -14.9295
             409             471        -43.0056         44.1408        -155.449         154.940              0.              0.        -9.31708         4.47335
             409             473        -37.8904         41.1183        -173.762         167.346              0.              0.         3.90414        -6.50319
             409             686        -54.7522         58.5124        -195.827         192.835              0.              0.         4.04908        -10.8061
             409            1511        -40.4480         42.6295        -164.605         161.143              0.              0.        -2.70647        -1.01492
             409            1517        -40.9670         45.5713        -183.005         175.565              0.              0.         6.85955        -10.7163
             409            1518        -54.2332         55.5707        -177.427         178.413              0.              0.        -5.51694        -1.10465
             410               6        -83.6239         81.3701        -207.422         216.461              0.              0.         3.00525        -5.76877
             410              22        -67.2718         68.4708        -197.188         200.019              0.              0.        -1.86685        -6.23752
             410             252        -60.3007         58.8874        -156.022         160.234              0.              0.        -6.49494         3.78331
             410             471        -45.8671         46.5740        -154.662         154.532              0.              0.        -8.56205         4.02798
             410             689        -75.4478         74.9204        -202.305         208.240              0.              0.     569.197E-03        -6.00314
             410            1383        -71.9623         70.1288        -181.722         188.347              0.              0.        -1.74485    -992.728E-03
             410            1518        -56.5694         57.5224        -175.925         177.276              0.              0.        -5.21445        -1.10477
             410            1519        -53.0839         52.7307        -155.342         157.383              0.              0.        -7.52850         3.90565
             450              11        -29.8299         29.8299        -100.340         100.340              0.              0.        -3.92135         3.92135
             450              74         6.10115        -6.10115         24.5931        -24.5931              0.              0.     546.131E-03    -546.131E-03
             450             434        -33.8291         33.8291        -115.633         115.633              0.              0.        -2.84783         2.84783
             450             502         10.4576        -10.4576         36.0132        -36.0132              0.              0.         1.43102        -1.43102
             450             765        -11.8644         11.8644        -37.8735         37.8735              0.              0.        -1.68761         1.68761
             450            1605        -11.6858         11.6858        -39.8098         39.8098              0.              0.    -708.408E-03     708.408E-03
             450            1606        -31.8295         31.8295        -107.986         107.986              0.              0.        -3.38459         3.38459
             450            1607         8.27937        -8.27937         30.3031        -30.3031              0.              0.     988.573E-03    -988.573E-03
             451              73    -418.458E-03     418.458E-03         1.65317        -1.65317              0.              0.    -247.980E-03     247.980E-03
             451              74        -2.17482         2.17482        -8.68962         8.68962              0.              0.         1.27457        -1.27457
             451             502        -2.36425         2.36425        -7.50518         7.50518              0.              0.    -989.264E-03     989.264E-03
             451             503     635.460E-03    -635.460E-03         2.64775        -2.64775              0.              0.     179.323E-03    -179.323E-03
             451             768        -1.29664         1.29664        -3.51823         3.51823              0.              0.     513.295E-03    -513.295E-03
             451            1603    -864.393E-03     864.393E-03        -2.42871         2.42871              0.              0.    -404.971E-03     404.971E-03
             451            1607        -2.26953         2.26953        -8.09740         8.09740              0.              0.     142.653E-03    -142.653E-03
             451            1608     108.501E-03    -108.501E-03         2.15046        -2.15046              0.              0.    -34.3286E-03     34.3286E-03
             452              72    -387.397E-03     387.397E-03    -368.132E-03     368.132E-03              0.              0.     44.6411E-03    -44.6411E-03
             452              73     54.6181E-03    -54.6181E-03        -1.26625         1.26625              0.              0.     292.191E-03    -292.191E-03
             452             501    -1.01636E-03     1.01636E-03     329.417E-03    -329.417E-03              0.              0.    -24.2668E-03     24.2668E-03
             452             503    -61.1841E-03     61.1841E-03    -411.703E-03     411.703E-03              0.              0.    -15.7799E-03     15.7799E-03
             452             771    -166.390E-03     166.390E-03    -817.193E-03     817.193E-03              0.              0.     168.416E-03    -168.416E-03
             452            1600    -31.1002E-03     31.1002E-03    -41.1432E-03     41.1432E-03              0.              0.    -20.0234E-03     20.0234E-03
             452            1608    -3.28301E-03     3.28301E-03    -838.979E-03     838.979E-03              0.              0.     138.206E-03    -138.206E-03
             452            1609    -194.207E-03     194.207E-03    -19.3573E-03     19.3573E-03              0.              0.     10.1871E-03    -10.1871E-03
             453               7    -12.7249E-03     12.7249E-03    -652.848E-03     652.848E-03              0.              0.     56.0386E-03    -56.0386E-03
             453              72    -245.666E-03     245.666E-03    -488.435E-03     488.435E-03              0.              0.     154.041E-03    -154.041E-03
             453             264     4.46258E-03    -4.46258E-03     170.715E-03    -170.715E-03              0.              0.    -15.6695E-03     15.6695E-03
             453             501     125.737E-03    -125.737E-03     139.275E-03    -139.275E-03              0.              0.    -61.9692E-03     61.9692E-03
             453             773    -129.196E-03     129.196E-03    -570.641E-03     570.641E-03              0.              0.     105.040E-03    -105.040E-03
             453            1155    -4.13114E-03     4.13114E-03    -241.066E-03     241.066E-03              0.              0.     20.1846E-03    -20.1846E-03
             453            1609    -59.9648E-03     59.9648E-03    -174.580E-03     174.580E-03              0.              0.     46.0357E-03    -46.0357E-03
             453            1610     65.0996E-03    -65.0996E-03     154.995E-03    -154.995E-03              0.              0.    -38.8193E-03     38.8193E-03
             478              75        -40.4950         40.2958        -163.943         153.265              0.              0.        -21.8938         19.8921
             478              76        -42.8313         48.2764        -192.840         184.330              0.              0.        -11.5489         16.1816
             478             531        -34.1397         37.4214        -162.470         157.635              0.              0.         1.62977         1.65352
             478             532        -37.4119         38.1301        -169.132         161.052              0.              0.        -14.6540         13.7256
             478             777        -41.6631         44.2861        -178.392         168.798              0.              0.        -16.7214         18.0369
             478            1659        -38.9534         39.2129        -166.538         157.158              0.              0.        -18.2739         16.8089
             478            1660        -35.7758         37.7758        -165.801         159.344              0.              0.        -6.51214         7.68956
             478            1661        -38.4855         42.8489        -177.655         170.983              0.              0.        -4.95957         8.91758
             479              11        -42.4274         38.0946        -135.049         125.162              0.              0.        -10.4654         11.3240
             479              75        -40.2648         39.0999        -163.203         154.467              0.              0.        -20.7825         18.8895
             479             434        -47.5675         44.8764        -155.626         149.596              0.              0.        -6.40410         6.16881
             479             532        -36.2020         36.0177        -160.276         153.002              0.              0.        -16.4202         15.6398
             479             774        -41.3461         38.5973        -149.126         139.815              0.              0.        -15.6239         15.1068
             479            1606        -44.9974         41.4855        -145.338         137.379              0.              0.        -8.43473         8.74639
             479            1659        -38.2334         37.5588        -161.739         153.735              0.              0.        -18.6014         17.2647
             479            1662        -41.8847         40.4470        -157.951         151.299              0.              0.        -11.4122         10.9043
             518              10        -84.2460         81.9414        -208.194         216.901              0.              0.        -2.85285         5.50239
             518              77        -68.3241         69.5034        -197.914         201.262              0.              0.         1.70468         6.49484
             518             280        -60.0801         58.7422        -155.877         159.892              0.              0.         5.43248        -2.96270
             518             540        -52.2922         52.2430        -159.716         161.238              0.              0.         8.42995        -4.09732
             518             783        -76.2850         75.7224        -203.054         209.081              0.              0.    -574.084E-03         5.99861
             518            1267        -72.1631         70.3418        -182.036         188.396              0.              0.         1.28982         1.26984
             518            1740        -56.1861         55.4926        -157.796         160.565              0.              0.         6.93122        -3.53001
             518            1741        -60.3081         60.8732        -178.815         181.250              0.              0.         5.06732         1.19876
             519              76        -42.1371         47.8627        -190.591         182.347              0.              0.        -9.16542         14.3182
             519              77        -65.9472         67.3417        -198.425         201.289              0.              0.         1.98515         6.44143
             519             531        -35.8210         38.4046        -161.636         157.088              0.              0.         2.20154         1.31514
             519             540        -49.8299         50.2269        -160.317         161.496              0.              0.         9.30672        -4.63441
             519             780        -54.0421         57.6022        -194.508         191.818              0.              0.        -3.59013         10.3798
             519            1661        -38.9790         43.1336        -176.113         169.717              0.              0.        -3.48194         7.81666
             519            1739        -42.8254         44.3158        -160.976         159.292              0.              0.         5.75413        -1.65964
             519            1741        -57.8885         58.7843        -179.371         181.393              0.              0.         5.64593     903.512E-03


